23
XYZ file generated by Avogadro.
C     -4.0395538346   -2.6726678011   -1.3305458835
C     -3.1052192424   -2.2272656327   -0.2128924553
C     -2.5544395020   -3.3774177740    0.6643775353
C     -1.7804785224   -4.3862619729   -0.1990172993
C     -1.6683108454   -2.8296639943    1.8282034341
C     -2.4287846208   -1.8596072465    2.7426954452
C     -1.0943298758   -3.9467946020    2.7100664945
H     -4.4441489620   -1.7959126459   -1.8469597493
H     -4.8810096688   -3.2468510959   -0.9298625386
H     -3.5251636259   -3.2793291383   -2.0806507836
H     -3.6768096794   -1.5286189732    0.4059956500
H     -2.2719651665   -1.6602072968   -0.6466152840
H     -3.4103818959   -3.9071335805    1.1058736175
H     -0.9029662493   -3.9177206785   -0.6583243290
H     -2.4039067436   -4.7982902839   -0.9974367364
H     -1.4436442836   -5.2471423635    0.3850303396
H     -0.8213169666   -2.2822484488    1.3915796528
H     -3.3170788803   -2.3378644109    3.1704642606
H     -2.7428172298   -0.9558232268    2.2144295151
H     -1.7926956715   -1.5293671578    3.5716747876
H     -1.8951484436   -4.5614621091    3.1362195551
H     -0.5146474499   -3.5267177782    3.5396976694
H     -0.4146458807   -4.5987957998    2.1551187692
